1082
1   1   19   89   0 99 96 59 85 0
1   2   55   95   0 61 17 45 8 84 5 93 0
1   3   0    0    0 0
1   4   121  99   0 12 77 81 9 33 76 0
1   5   30   95   0 100 87 97 95 92 37 98 0
1   6   41   89   0 91 44 38 86 16 0
2   1   112  98   0 26 69 62 19 82 53 40 0
2   2   55   87   0 4 25 55 54 80 68 0
2   3   20   51   0 75 74 72 0
2   4   48   91   0 39 67 23 56 0
2   5   134  97   0 24 29 34 35 65 66 71 78 0
2   6   83   97   0 21 73 2 57 42 14 43 15 41 22 0
3   1   69   95   0 52 89 6 94 13 58 0
3   2   81   99   0 88 7 48 46 36 47 10 0
3   3   0    0    0 0
3   4   80   87   0 32 90 63 64 49 11 0
3   5   59   94   0 70 30 20 51 79 3 50 0
3   6   75   95   0 1 28 27 60 83 18 31 0